SCIP Status        : solving was interrupted [time limit reached]
Total Time         :    3600.00
  solving          :    3600.00
  presolving       :       0.22 (included in solving)
  reading          :       0.00
  copying          :       1.89 (55 #copies) (minimal 0.00, maximal 0.07, average 0.03)
Original Problem   :
  Problem name     : bbbenchmark/g05_60.2.cut
  Variables        : 61 (60 binary, 0 integer, 0 implicit integer, 1 continuous)
  Constraints      : 1 initial, 1 maximal
  Objective        : minimize, 1 non-zeros (abs.min = 1, abs.max = 1)
Presolved Problem  :
  Problem name     : t_bbbenchmark/g05_60.2.cut
  Variables        : 946 (60 binary, 0 integer, 885 implicit integer, 1 continuous)
  Constraints      : 886 initial, 10890 maximal
  Objective        : minimize, 1 non-zeros (abs.min = 1, abs.max = 1)
  Nonzeros         : 3601 constraint, 122 clique table
Presolvers         :   ExecTime  SetupTime  Calls  FixedVars   AggrVars   ChgTypes  ChgBounds   AddHoles    DelCons    AddCons   ChgSides   ChgCoefs
  boundshift       :       0.00       0.00      0          0          0          0          0          0          0          0          0          0
  convertinttobin  :       0.00       0.00      0          0          0          0          0          0          0          0          0          0
  domcol           :       0.00       0.00      1          0          0          0          0          0          0          0          0          0
  dualagg          :       0.00       0.00      0          0          0          0          0          0          0          0          0          0
  dualcomp         :       0.00       0.00      1          0          0          0          0          0          0          0          0          0
  dualinfer        :       0.00       0.00      0          0          0          0          0          0          0          0          0          0
  dualsparsify     :       0.00       0.00      1          0          0          0          0          0          0          0          0          0
  gateextraction   :       0.00       0.00      0          0          0          0          0          0          0          0          0          0
  implics          :       0.00       0.00      2          0          0          0          0          0          0          0          0          0
  inttobinary      :       0.00       0.00      0          0          0          0          0          0          0          0          0          0
  qpkktref         :       0.00       0.00      0          0          0          0          0          0          0          0          0          0
  redvub           :       0.00       0.00      0          0          0          0          0          0          0          0          0          0
  sparsify         :       0.00       0.00      1          0          0          0          0          0          0          0          0          0
  stuffing         :       0.00       0.00      0          0          0          0          0          0          0          0          0          0
  trivial          :       0.00       0.00      4          0          0          0          0          0          0          0          0          0
  tworowbnd        :       0.00       0.00      0          0          0          0          0          0          0          0          0          0
  dualfix          :       0.00       0.00      4          0          0          0          0          0          0          0          0          0
  genvbounds       :       0.00       0.00      0          0          0          0          0          0          0          0          0          0
  probing          :       0.12       0.00      1          0          0          0          0          0          0          0          0          0
  pseudoobj        :       0.00       0.00      1          0          0          0          1          0          0          0          0          0
  symmetry         :       0.00       0.00      0          0          0          0          0          0          0          0          0          0
  vbounds          :       0.00       0.00      1          0          0          0          0          0          0          0          0          0
  and              :       0.02       0.01      2          0          0          0          0          0          0          0          0          0
  linear           :       0.00       0.00      2          0          0          0          0          0          0          0          0          0
  logicor          :       0.00       0.00      0          0          0          0          0          0          0          0          0          0
  nonlinear        :       0.08       0.00      5          0          0          0          1          0          0        885          0          0
  benders          :       0.00       0.00      0          0          0          0          0          0          0          0          0          0
  components       :       0.00       0.00      1          0          0          0          0          0          0          0          0          0
  root node        :          -          -      -          0          -          -         40          -          -          -          -          -
Constraints        :     Number  MaxNumber  #Separate #Propagate    #EnfoLP    #EnfoRelax  #EnfoPS    #Check   #ResProp    Cutoffs    DomReds       Cuts    Applied      Conss   Children
  benderslp        :          0          0          0          0      98349          0          0      26027          0          0          0          0          0          0          0
  integral         :          0          0          0          0      98349          0          0      26027          0          0       5529          0          0       2175     192134
  and              :        885        885     114809     634903         10          0          0         29     143766         19    3354189        894        841          0          0
  linear           :          1+         6         73     634884         10          0          0         27          1          0          1          0          0          0          0
  logicor          :          0+     10001          0     180265          0          0          0          0        481        577         83          0          0          0          0
  benders          :          0          0          0          0         10          0          0         30          0          0          0          0          0          0          0
  countsols        :          0          0          0          0         10          0          0         30          0          0          0          0          0          0          0
  components       :          0          0          0          0          0          0          0          0          0          0          0          0          0          0          0
Constraint Timings :  TotalTime  SetupTime   Separate  Propagate     EnfoLP     EnfoPS     EnfoRelax   Check    ResProp    SB-Prop
  benderslp        :       0.09       0.00       0.00       0.00       0.09       0.00       0.00       0.00       0.00       0.00
  integral         :      47.16       0.00       0.00       0.00      47.10       0.00       0.00       0.06       0.00       0.00
  and              :      61.33       0.01      36.40      24.27       0.00       0.00       0.00       0.00       0.16       0.49
  linear           :       0.56       0.00       0.00       0.55       0.00       0.00       0.00       0.00       0.00       0.01
  logicor          :      25.83       0.00       0.00      25.72       0.00       0.00       0.00       0.00       0.00       0.11
  benders          :       0.00       0.00       0.00       0.00       0.00       0.00       0.00       0.00       0.00       0.00
  countsols        :       0.00       0.00       0.00       0.00       0.00       0.00       0.00       0.00       0.00       0.00
  components       :       0.18       0.00       0.00       0.18       0.00       0.00       0.00       0.00       0.00       0.00
Propagators        : #Propagate   #ResProp    Cutoffs    DomReds
  dualfix          :          4          0          0          0
  genvbounds       :          0          0          0          0
  nlobbt           :          0          0          0          0
  obbt             :          0          0          0          0
  probing          :          0          0          0          0
  pseudoobj        :     507482          0          0         43
  redcost          :     246780          0          0     383985
  rootredcost      :         21          0          0          0
  symmetry         :          0          0          0          0
  vbounds          :      47208          0          0          0
Propagator Timings :  TotalTime  SetupTime   Presolve  Propagate    ResProp    SB-Prop
  dualfix          :       0.00       0.00       0.00       0.00       0.00       0.00
  genvbounds       :       0.33       0.00       0.00       0.32       0.00       0.01
  nlobbt           :       0.00       0.00       0.00       0.00       0.00       0.00
  obbt             :       0.00       0.00       0.00       0.00       0.00       0.00
  probing          :       0.12       0.00       0.12       0.00       0.00       0.00
  pseudoobj        :       0.89       0.00       0.00       0.89       0.00       0.00
  redcost          :       8.09       0.00       0.00       8.08       0.00       0.01
  rootredcost      :       0.36       0.00       0.00       0.36       0.00       0.00
  symmetry         :       0.33       0.00       0.00       0.32       0.00       0.01
  vbounds          :       0.37       0.00       0.00       0.37       0.00       0.00
Conflict Analysis  :       Time      Calls    Success    DomReds  Conflicts   Literals    Reconvs ReconvLits   Dualrays   Nonzeros   LP Iters   (pool size: [10000,10000])
  propagation      :       0.00        596        398          -        449       29.9          0        0.0          -          -          -
  infeasible LP    :       0.00          0          0          -          0        0.0          0        0.0          6       41.5          0
  bound exceed. LP :      17.41      12676       9410          -      63902       36.2          2       24.0          0        0.0      60306
  strong branching :       0.00          0          0          -          0        0.0          0        0.0          -          -          0
  pseudo solution  :       0.00          0          0          -          0        0.0          0        0.0          -          -          -
  applied globally :       0.20          -          -          0      29231       36.3          -          -          6          -          -
  applied locally  :          -          -          -          0          0        0.0          -          -          0          -          -
Separators         :   ExecTime  SetupTime      Calls  RootCalls    Cutoffs    DomReds  FoundCuts ViaPoolAdd  DirectAdd    Applied ViaPoolApp  DirectApp      Conss
  cut pool         :       2.18          -      32680         99          -          -      24323     310487          -          -          -          -          -    (maximal pool size:       1358)
  aggregation      :     154.86       0.00       4338         73          0          0         24          0          0          0          0          0          0
  > cmir           :          -          -          -          -          -          -          -          0          0          0          0          0          -
  > flowcover      :          -          -          -          -          -          -          -          0          0          0          0          0          -
  > knapsackcover  :          -          -          -          -          -          -          -          0          0          0          0          0          -
  cgmip            :       0.00       0.00          0          0          0          0          0          0          0          0          0          0          0
  clique           :       0.00       0.00         73         73          0          0          0          0          0          0          0          0          0
  closecuts        :       0.00       0.00          0          0          0          0          0          0          0          0          0          0          0
  convexproj       :       0.00       0.00          0          0          0          0          0          0          0          0          0          0          0
  disjunctive      :       0.00       0.00          0          0          0          0          0          0          0          0          0          0          0
  eccuts           :       0.00       0.00          0          0          0          0          0          0          0          0          0          0          0
  gauge            :       0.00       0.00          0          0          0          0          0          0          0          0          0          0          0
  gomory           :       0.00       0.00          0          0          0          0          0          0          0          0          0          0          0
  > gomorymi       :          -          -          -          -          -          -          -          0          0          0          0          0          -
  > strongcg       :          -          -          -          -          -          -          -          0          0          0          0          0          -
  impliedbounds    :       0.11       0.00       4338         73          0          0          1          0          0          0          0          0          0
  interlattice     :       0.00       0.00          0          0          0          0          0          0          0          0          0          0          0
  interminor       :       0.00       0.00          0          0          0          0          0          0          0          0          0          0          0
  intersub         :       0.18       0.00         36         36          0          0         34          0         34         34          0         34          0
  intobj           :       0.00       0.00          0          0          0          0          0          0          0          0          0          0          0
  mcf              :       0.00       0.00          1          1          0          0          0          0          0          0          0          0          0
  minor            :       0.02       0.00          0          0          0          0          0          0          0          0          0          0          0
  mixing           :       0.02       0.00       4338         73          0          0          0          0          0          0          0          0          0
  oddcycle         :       0.00       0.00          0          0          0          0          0          0          0          0          0          0          0
  rapidlearning    :       0.01       0.00          0          0          0          0          0          0          0          0          0          0          0
  rlt              :       0.00       0.00         10         10          0          0          0          0          0          0          0          0          0
  zerohalf         :      17.53       0.00       3540         20          0          0      24298     310487          0      85736      85736          0          0
Cutselectors       :   ExecTime  SetupTime      Calls  RootCalls   Selected     Forced   Filtered  RootSelec   RootForc   RootFilt 
  hybrid           :       0.33       0.00      19474         71      86611          0     224804        219          0         22
Pricers            :   ExecTime  SetupTime      Calls       Vars
  problem variables:       0.00          -          0          0
Branching Rules    :   ExecTime  SetupTime   BranchLP  BranchExt   BranchPS    Cutoffs    DomReds       Cuts      Conss   Children
  allfullstrong    :       0.00       0.00          0          0          0          0          0          0          0          0
  cloud            :       0.00       0.00          0          0          0          0          0          0          0          0
  distribution     :       0.00       0.00          0          0          0          0          0          0          0          0
  fullstrong       :       0.00       0.00          0          0          0          0          0          0          0          0
  inference        :       0.00       0.00          0          0          0          0          0          0          0          0
  leastinf         :       0.00       0.00          0          0          0          0          0          0          0          0
  lookahead        :       0.00       0.00          0          0          0          0          0          0          0          0
  mostinf          :       0.00       0.00          0          0          0          0          0          0          0          0
  multaggr         :       0.00       0.00          0          0          0          0          0          0          0          0
  nodereopt        :       0.00       0.00          0          0          0          0          0          0          0          0
  pscost           :       0.00       0.00          0          0          0          0          0          0          0          0
  random           :       0.00       0.00          0          0          0          0          0          0          0          0
  relpscost        :      46.82       0.00      98339          0          0          0       5529          0       2966     192134
  vanillafullstrong:       0.00       0.00          0          0          0          0          0          0          0          0
Primal Heuristics  :   ExecTime  SetupTime      Calls      Found       Best
  LP solutions     :       0.02          -          -         10         10
  relax solutions  :       0.00          -          -          0          0
  pseudo solutions :       0.00          -          -          0          0
  strong branching :       0.01          -          -          0          0
  actconsdiving    :       0.00       0.00          0          0          0
  adaptivediving   :       8.07       0.00        308          1          1
  alns             :       4.94       0.00         31          5          5
  bound            :       0.00       0.00          0          0          0
  clique           :       0.01       0.00          1          0          0
  coefdiving       :       0.00       0.00          0          0          0
  completesol      :       0.00       0.00          0          0          0
  conflictdiving   :      11.21       0.00        524          0          0
  crossover        :       0.22       0.00          4          1          1
  dins             :       0.00       0.00          0          0          0
  distributiondivin:      29.70       0.00        523          0          0
  dps              :       0.00       0.00          0          0          0
  dualval          :       0.00       0.00          0          0          0
  farkasdiving     :       0.01       0.00          0          0          0
  feaspump         :       0.02       0.00          0          0          0
  fixandinfer      :       0.00       0.00          0          0          0
  fracdiving       :      18.74       0.00        523          0          0
  gins             :       0.05       0.00          0          0          0
  guideddiving     :      16.96       0.00        523          3          3
  indicator        :       0.15       0.00          0          0          0
  indicatordiving  :       0.00       0.00          0          0          0
  intdiving        :       0.00       0.00          0          0          0
  intshifting      :       0.10       0.00         30          0          0
  linesearchdiving :      15.37       0.00        523          0          0
  localbranching   :       0.00       0.00          0          0          0
  locks            :       0.00       0.00          1          0          0
  lpface           :       0.24       0.00          0          0          0
  mpec             :       1.07       0.00          1          0          0
  multistart       :       0.00       0.00          0          0          0
  mutation         :       0.00       0.00          0          0          0
  nlpdiving        :       7.11       0.00          4          0          0
  objpscostdiving  :      38.19       0.00        143          4          1
  octane           :       0.00       0.00          0          0          0
  ofins            :       0.12       0.00          0          0          0
  oneopt           :       0.13       0.00         31          0          0
  padm             :       0.00       0.00          0          0          0
  proximity        :       0.00       0.00          0          0          0
  pscostdiving     :      17.24       0.00        523          1          1
  randrounding     :       1.13       0.00      25993          0          0
  rens             :       0.00       0.00          0          0          0
  reoptsols        :       0.00       0.00          0          0          0
  repair           :       0.00       0.00          0          0          0
  rins             :       5.48       0.00         19          0          0
  rootsoldiving    :      20.93       0.00         77          0          0
  rounding         :       0.72       0.00       4782          0          0
  shiftandpropagate:       0.00       0.00          0          0          0
  shifting         :      40.93       0.00      20070          9          9
  simplerounding   :       0.13       0.00          0          0          0
  subnlp           :      99.95       0.00          0          0          0
  trivial          :       0.00       0.00          2          2          2
  trivialnegation  :       0.00       0.00          0          0          0
  trustregion      :       0.00       0.00          0          0          0
  trysol           :       0.24       0.00          0          0          0
  twoopt           :       0.00       0.00          0          0          0
  undercover       :       1.01       0.00          1          1          1
  vbounds          :       0.00       0.00          0          0          0
  veclendiving     :      10.63       0.00        523          0          0
  zeroobj          :       0.00       0.00          0          0          0
  zirounding       :       0.27       0.00       1000          0          0
  other solutions  :          -          -          -          0          -
Diving (single)    :      Calls      Nodes   LP Iters Backtracks  Conflicts   MinDepth   MaxDepth   AvgDepth  RoundSols  NLeafSols  MinSolDpt  MaxSolDpt  AvgSolDpt
  actconsdiving    :          0          -          -          -          -          -          -          -          -          -          -          -          -
  coefdiving       :          0          -          -          -          -          -          -          -          -          -          -          -          -
  conflictdiving   :        524       9118     106985        538       9148         23         47       32.1          0          -          -          -          -
  distributiondivin:        523       6956     209444        658       4968         21         37       27.5          0          -          -          -          -
  farkasdiving     :          0          -          -          -          -          -          -          -          -          -          -          -          -
  fracdiving       :        523      44164     193033        565       3658         27        241       98.8          0          -          -          -          -
  guideddiving     :        523      39772     183464        422       3288         27        206       90.8          0          3         53         62       58.7
  indicatordiving  :          0          -          -          -          -          -          -          -          -          -          -          -          -
  linesearchdiving :        523      11610     166233        645      10151         25         55       36.6          0          -          -          -          -
  pscostdiving     :        523       8968     197200        544       7737         23         47       31.6          0          1         47         47       47.0
  veclendiving     :        523       9639      92565        524      11760         28         51       33.0          0          -          -          -          -
Diving (adaptive)  :      Calls      Nodes   LP Iters Backtracks  Conflicts   MinDepth   MaxDepth   AvgDepth  RoundSols  NLeafSols  MinSolDpt  MaxSolDpt  AvgSolDpt
  actconsdiving    :         31        482      13589         43        282         23         35       28.8          0          1         31         31       31.0
  coefdiving       :         89       1614      15122         89       2063         27         41       32.3          0          -          -          -          -
  conflictdiving   :          0          -          -          -          -          -          -          -          -          -          -          -          -
  distributiondivin:          0          -          -          -          -          -          -          -          -          -          -          -          -
  farkasdiving     :          0          -          -          -          -          -          -          -          -          -          -          -          -
  fracdiving       :         19       1637       7879         19        130         36        174      100.1          0          -          -          -          -
  guideddiving     :         23       1903       8417         14         99         38        166       96.5          0          -          -          -          -
  indicatordiving  :          0          -          -          -          -          -          -          -          -          -          -          -          -
  linesearchdiving :         40        896      11738         44        770         28         49       36.9          0          -          -          -          -
  pscostdiving     :         37        649      12563         37        531         24         37       31.9          0          -          -          -          -
  veclendiving     :         69       1282      10822         69       1565         28         41       33.2          0          -          -          -          -
Neighborhoods      :      Calls  SetupTime  SolveTime SolveNodes       Sols       Best       Exp3  EpsGreedy        UCB TgtFixRate  Opt  Inf Node Stal  Sol  Usr Othr Actv
  rens             :          3       0.20       0.02          2          0          0    0.00000   -1.00000    0.54094      0.437    0    3    0    0    0    0    0    1
  rins             :          3       0.25       0.15         65          0          0    0.00000   -1.00000    0.46267      0.662    0    2    0    1    0    0    0    1
  mutation         :          8       0.38       0.48        201          3          3    0.00000   -1.00000    0.52197      0.553    2    3    0    3    0    0    0    1
  localbranching   :          3       0.19       0.14         81          0          0    0.00000   -1.00000    0.45928      0.662    0    2    0    1    0    0    0    1
  crossover        :          3       0.23       0.01          2          0          0    0.00000   -1.00000    0.54089      0.437    0    3    0    0    0    0    0    1
  proximity        :          3       0.15       0.25         77          0          0    0.00000   -1.00000    0.45928      0.662    0    2    0    1    0    0    0    1
  zeroobjective    :          4       0.29       1.25        394          1          1    0.00000   -1.00000    0.50757      0.522    1    2    0    1    0    0    0    1
  dins             :          4       0.24       0.23        100          1          1    0.00000   -1.00000    0.52772      0.522    1    2    0    1    0    0    0    1
  trustregion      :          0       0.00       0.00          0          0          0    0.00000   -1.00000    1.00000      0.900    0    0    0    0    0    0    0    0
Expressions        :   #IntEval  IntEvalTi   #RevProp  RevPropTi    DomReds    Cutoffs  #Estimate  EstimTime  Branching  #Simplify SimplifyTi Simplified
  pow              :          0       0.00          0       0.00          0          0          0       0.00          0          0       0.00          0
  prod             :       3540       0.00          0       0.00          0          0          0       0.00          0       2655       0.01          0
  sum              :          8       0.00          2       0.00          0          0          0       0.00          0          3       0.00          2
  var              :       3327       0.00          0       0.00          0          0          0       0.00          0       6378       0.00          0
  varidx           :          0       0.00          0       0.00          0          0          0       0.00          0          0       0.00          0
LP                 :       Time      Calls Iterations  Iter/call   Iter/sec  Time-0-It Calls-0-It    ItLimit
  primal LP        :     140.59      18169          0       0.00       0.00     140.52      18169
  dual LP          :    2634.16     230687   20222348     101.08    7676.96       9.82      30631
  lex dual LP      :       0.00          0          0       0.00          -
  barrier LP       :       0.00          0          0       0.00          -       0.00          0
  resolve instable :       0.00          0          0       0.00          -
  diving/probing LP:     143.45      14556    1729047     118.79   12053.31
  strong branching :      23.03       3890     280338      72.07   12172.73          -          -        169
    (at root node) :          -         20       5612     280.60          -
  conflict analysis:       7.29       6176      60306       9.76    8272.43
NLP relaxation     :
  solve time       :       6.30 (7 calls)
  convexity        :  nonconvex (1 linear rows, 0 convex ineq., 0 nonconvex ineq., 885 nonlinear eq. or two-sided ineq.)
NLP Solvers        :  #Problems  ProblemTi    #Solves  SolveTime      #Iter  Time/Iter      #Okay #TimeLimit #IterLimit #LObjLimit #Interrupt  #NumError #EvalError  #OutOfMem #LicenseEr #OtherTerm   #GlobOpt    #LocOpt  #Feasible #LocInfeas #GlobInfea #Unbounded   #Unknown
  ipopt            :          2       5.64         10       7.40        309       0.02          8          0          2          0          0          0          0          0          0          0          0          1          1          3          0          0          5
B&B Tree           :
  number of runs   :          1
  nodes            :     178357 (96067 internal, 82290 leaves)
  feasible leaves  :         10
  infeas. leaves   :         47
  objective leaves :      82232
  nodes (total)    :     178357 (96067 internal, 82290 leaves)
  nodes left       :      13754
  max depth        :         35
  max depth (total):         35
  backtracks       :      44800 (25.1%)
  early backtracks :          0 (0.0%)
  nodes exc. ref.  :          0 (0.0%)
  delayed cutoffs  :          0
  repropagations   :       5400 (62 domain reductions, 0 cutoffs)
  avg switch length:       4.08
  switching time   :     178.56
Estim. Tree Size   :    2145779
Estimation Tree    : 192135 nodes (178381 visited, 96067 internal, 82314 leaves, 13754 open), weight: 0.0609 completed 0.2800
Estimations        :      estim      value      trend resolution     smooth
  wbe              :    2705131          -          -          -          -
  tree-profile     :         -1          -          -          -          -
  gap              :    1495372    0.89207    0.00002        128    1427663
  tree-weight      :    2145780    0.06086    0.00012        128    2145886
  leaf-frequency   :    2227113    0.46145    0.00000        128    2067790
  ssg              :    1308161    0.59312   -0.00013        128    1308078
  open-nodes       :     356762 13754.00000    7.46949        128     356533
Root Node          :
  First LP value   : -1.00000000000000e+00
  First LP Iters   :        565 (28250.00 Iter/sec)
  First LP Time    :       0.02
  Final Dual Bound : -8.91831347479257e-01
  Final Root Iters :       3140
  Root LP Estimate : -5.06316404732185e-01
Solution           :
  Solutions found  :         37 (34 improvements)
  First Solution   : +1.00000000000000e+05   (in run 1, after 0 nodes, 0.03 seconds, depth 0, found by <trivial>)
  Gap First Sol.   :   infinite
  Gap Last Sol.    :      12.29 %
  Primal Bound     : -5.97740112994351e-01   (in run 1, after 170443 nodes, 3479.64 seconds, depth 21, found by <relaxation>)
  Dual Bound       : -6.70056497175142e-01
  Gap              :      12.10 %
Integrals          :      Total       Avg%
  primal-dual      :   55886.06      15.52
  primal-ref       :          -          - (not evaluated)
  dual-ref         :          -          - (not evaluated)
